[EMIB] Config mutual_distancing_enabled=False
[EMIB] Config c2026-07-02 14:00:42 - INFO - Set parameter Username
2026-07-02 14:00:42 - INFO - Set parameter LicenseID to value 2840060
2026-07-02 14:00:42 - INFO - Academic license - for non-commercial use only - expires 2027-07-01
2026-07-02 14:00:42 - INFO - Set parameter TimeLimit to value 300
2026-07-02 14:00:42 - INFO - Set parameter MIPGap to value 0
2026-07-02 14:00:42 - INFO - Set parameter MIPFocus to value 3
2026-07-02 14:00:42 - INFO - Set parameter Heuristics to value 0.5
2026-07-02 14:00:42 - INFO - Set parameter LogToConsole to value 1
2026-07-02 14:00:42 - INFO - Gurobi Optimizer version 13.0.1 build v13.0.1rc0 (linux64 - "Ubuntu 20.04.6 LTS")
2026-07-02 14:00:42 - INFO - 
2026-07-02 14:00:42 - INFO - CPU model: AMD Ryzen 9 9950X3D 16-Core Processor, instruction set [SSE2|AVX|AVX2|AVX512]
2026-07-02 14:00:42 - INFO - Thread count: 14 physical cores, 28 logical processors, using up to 28 threads
2026-07-02 14:00:42 - INFO - 
2026-07-02 14:00:42 - INFO - Non-default parameters:
2026-07-02 14:00:42 - INFO - TimeLimit  300
2026-07-02 14:00:42 - INFO - MIPGap  0
2026-07-02 14:00:42 - INFO - Heuristics  0.5
2026-07-02 14:00:42 - INFO - MIPFocus  3
2026-07-02 14:00:42 - INFO - 
2026-07-02 14:00:42 - INFO - Optimize a model with 1424 rows, 650 columns and 4886 nonzeros (Min)
2026-07-02 14:00:42 - INFO - Model fingerprint: 0x296e0ab2
2026-07-02 14:00:42 - INFO - Model has 3 linear objective coefficients
2026-07-02 14:00:42 - INFO - Variable types: 253 continuous, 397 integer (397 binary)
2026-07-02 14:00:42 - INFO - Coefficient statistics:
2026-07-02 14:00:42 - INFO -   Matrix range     [3e-01, 5e+02]
2026-07-02 14:00:42 - INFO -   Objective range  [6e-05, 8e-02]
2026-07-02 14:00:42 - INFO -   Bounds range     [9e-01, 2e+07]
2026-07-02 14:00:42 - INFO -   RHS range        [9e-01, 3e+02]
2026-07-02 14:00:42 - INFO - 
2026-07-02 14:00:42 - INFO - Presolve removed 120 rows and 104 columns
2026-07-02 14:00:42 - INFO - Presolve time: 0.01s
2026-07-02 14:00:42 - INFO - Presolved: 1304 rows, 546 columns, 4636 nonzeros
2026-07-02 14:00:42 - INFO - Variable types: 175 continuous, 371 integer (371 binary)
2026-07-02 14:00:42 - INFO - Root relaxation presolve removed 96 rows and 18 columns
2026-07-02 14:00:42 - INFO - Root relaxation presolved: 1208 rows, 552 columns, 4432 nonzeros
2026-07-02 14:00:42 - INFO - 
2026-07-02 14:00:42 - INFO - 
2026-07-02 14:00:42 - INFO - Root relaxation: objective 2.292033e+00, 286 iterations, 0.00 seconds (0.01 work units)
2026-07-02 14:00:42 - INFO - 
2026-07-02 14:00:42 - INFO -     Nodes    |    Current Node    |     Objective Bounds      |     Work
2026-07-02 14:00:42 - INFO -  Expl Unexpl |  Obj  Depth IntInf | Incumbent    BestBd   Gap | It/Node Time
2026-07-02 14:00:42 - INFO - 
2026-07-02 14:00:42 - INFO -      0     0    2.29203    0  149          -    2.29203      -     -    0s
2026-07-02 14:00:42 - INFO -      0     0    2.29787    0  170          -    2.29787      -     -    0s
2026-07-02 14:00:42 - INFO -      0     0    2.29787    0  170          -    2.29787      -     -    0s
2026-07-02 14:00:42 - INFO -      0     0    2.29787    0  153          -    2.29787      -     -    0s
2026-07-02 14:00:42 - INFO -      0     0    4.01011    0  157          -    4.01011      -     -    0s
2026-07-02 14:00:42 - INFO -      0     0    4.01011    0  190          -    4.01011      -     -    0s
2026-07-02 14:00:42 - INFO -      0     0    4.01011    0  166          -    4.01011      -     -    0s
2026-07-02 14:00:42 - INFO -      0     0    4.57930    0  166          -    4.57930      -     -    0s
2026-07-02 14:00:42 - INFO -      0     0    4.87924    0  165          -    4.87924      -     -    0s
2026-07-02 14:00:42 - INFO -      0     0    4.87924    0  165          -    4.87924      -     -    0s
2026-07-02 14:00:42 - INFO -      0     0    4.87924    0  165          -    4.87924      -     -    0s
2026-07-02 14:00:42 - INFO -      0     0    5.04586    0  165          -    5.04586      -     -    0s
2026-07-02 14:00:42 - INFO -      0     0    5.04586    0  142          -    5.04586      -     -    0s
2026-07-02 14:00:43 - INFO -      0     2    5.04586    0  141          -    5.04586      -     -    1s
2026-07-02 14:00:47 - INFO -   2341  2017    7.90925   11  205          -    6.28360      -  43.6    5s
2026-07-02 14:00:52 - INFO -   7573  3670    8.51941   32   95          -    7.05029      -  90.2   10s
2026-07-02 14:00:57 - INFO -  17898  5242 infeasible   31               -    7.82605      -  82.1   15s
2026-07-02 14:01:02 - INFO -  31112  4246 infeasible   32               -    9.05869      -  74.8   20s
2026-07-02 14:01:06 - INFO - 
2026-07-02 14:01:06 - INFO - Cutting planes:
2026-07-02 14:01:06 - INFO -   Learned: 33
2026-07-02 14:01:06 - INFO -   Gomory: 136
2026-07-02 14:01:06 - INFO -   Lift-and-project: 108
2026-07-02 14:01:06 - INFO -   Cover: 5
2026-07-02 14:01:06 - INFO -   Implied bound: 5
2026-07-02 14:01:06 - INFO -   MIR: 79
2026-07-02 14:01:06 - INFO -   Mixing: 1
2026-07-02 14:01:06 - INFO -   StrongCG: 2
2026-07-02 14:01:06 - INFO -   Flow cover: 431
2026-07-02 14:01:06 - INFO -   Inf proof: 20
2026-07-02 14:01:06 - INFO -   RLT: 5
2026-07-02 14:01:06 - INFO -   Relax-and-lift: 9
2026-07-02 14:01:06 - INFO -   PSD: 1
2026-07-02 14:01:06 - INFO - 
2026-07-02 14:01:06 - INFO - Explored 40731 nodes (2717257 simplex iterations) in 24.66 seconds (38.81 work units)
2026-07-02 14:01:06 - INFO - Thread count was 28 (of 28 available processors)
2026-07-02 14:01:06 - INFO - 
2026-07-02 14:01:06 - INFO - Solution count 0
2026-07-02 14:01:06 - INFO - 
2026-07-02 14:01:06 - INFO - Model is infeasible
2026-07-02 14:01:06 - INFO - Best objective -, best bound -, gap -
2026-07-02 14:01:06 - INFO - 
2026-07-02 14:01:06 - INFO - User-callback calls 91318, time in user-callback 0.12 sec
2026-07-02 14:01:06 - INFO - Set parameter TimeLimit to value 300
2026-07-02 14:01:06 - INFO - Set parameter MIPGap to value 0.3
2026-07-02 14:01:06 - INFO - Set parameter MIPFocus to value 3
2026-07-02 14:01:06 - INFO - Set parameter Heuristics to value 0.5
2026-07-02 14:01:06 - INFO - Set parameter LogToConsole to value 1
2026-07-02 14:01:06 - INFO - Gurobi Optimizer version 13.0.1 build v13.0.1rc0 (linux64 - "Ubuntu 20.04.6 LTS")
2026-07-02 14:01:06 - INFO - 
2026-07-02 14:01:06 - INFO - CPU model: AMD Ryzen 9 9950X3D 16-Core Processor, instruction set [SSE2|AVX|AVX2|AVX512]
2026-07-02 14:01:06 - INFO - Thread count: 14 physical cores, 28 logical processors, using up to 28 threads
2026-07-02 14:01:06 - INFO - 
2026-07-02 14:01:06 - INFO - Non-default parameters:
2026-07-02 14:01:06 - INFO - TimeLimit  300
2026-07-02 14:01:06 - INFO - MIPGap  0.3
2026-07-02 14:01:06 - INFO - Heuristics  0.5
2026-07-02 14:01:06 - INFO - MIPFocus  3
2026-07-02 14:01:06 - INFO - 
2026-07-02 14:01:06 - INFO - Optimize a model with 1424 rows, 650 columns and 4886 nonzeros (Min)
2026-07-02 14:01:06 - INFO - Model fingerprint: 0x296e0ab2
2026-07-02 14:01:06 - INFO - Model has 3 linear objective coefficients
2026-07-02 14:01:06 - INFO - Variable types: 253 continuous, 397 integer (397 binary)
2026-07-02 14:01:06 - INFO - Coefficient statistics:
2026-07-02 14:01:06 - INFO -   Matrix range     [3e-01, 5e+02]
2026-07-02 14:01:06 - INFO -   Objective range  [6e-05, 8e-02]
2026-07-02 14:01:06 - INFO -   Bounds range     [9e-01, 2e+07]
2026-07-02 14:01:06 - INFO -   RHS range        [9e-01, 3e+02]
2026-07-02 14:01:06 - INFO - 
2026-07-02 14:01:06 - INFO - Presolved: 1304 rows, 546 columns, 4636 nonzeros
2026-07-02 14:01:06 - INFO - 
2026-07-02 14:01:06 - INFO - Continuing optimization...
2026-07-02 14:01:06 - INFO - 
2026-07-02 14:01:06 - INFO - 
2026-07-02 14:01:06 - INFO - Cutting planes:
2026-07-02 14:01:06 - INFO -   Learned: 33
2026-07-02 14:01:06 - INFO -   Gomory: 136
2026-07-02 14:01:06 - INFO -   Lift-and-project: 108
2026-07-02 14:01:06 - INFO -   Cover: 5
2026-07-02 14:01:06 - INFO -   Implied bound: 5
2026-07-02 14:01:06 - INFO -   MIR: 79
2026-07-02 14:01:06 - INFO -   Mixing: 1
2026-07-02 14:01:06 - INFO -   StrongCG: 2
2026-07-02 14:01:06 - INFO -   Flow cover: 431
2026-07-02 14:01:06 - INFO -   Inf proof: 20
2026-07-02 14:01:06 - INFO -   RLT: 5
2026-07-02 14:01:06 - INFO -   Relax-and-lift: 9
2026-07-02 14:01:06 - INFO -   PSD: 1
2026-07-02 14:01:06 - INFO - 
2026-07-02 14:01:06 - INFO - Explored 40731 nodes (2717257 simplex iterations) in 24.68 seconds (38.81 work units)
2026-07-02 14:01:06 - INFO - Most recent optimization runtime was 0.01 seconds (0.00 work units)
2026-07-02 14:01:06 - INFO - Thread count was 28 (of 28 available processors)
2026-07-02 14:01:06 - INFO - 
2026-07-02 14:01:06 - INFO - Solution count 0
2026-07-02 14:01:06 - INFO - 
2026-07-02 14:01:06 - INFO - Model is infeasible
2026-07-02 14:01:06 - INFO - Best objective -, best bound -, gap -
2026-07-02 14:01:06 - INFO - 
2026-07-02 14:01:06 - INFO - User-callback calls 51, time in user-callback 0.00 sec
2026-07-02 14:01:06 - INFO - Set parameter TimeLimit to value 3576
2026-07-02 14:01:06 - INFO - Set parameter MIPGap to value 0.8
2026-07-02 14:01:06 - INFO - Set parameter MIPFocus to value 3
2026-07-02 14:01:06 - INFO - Set parameter Heuristics to value 0.5
2026-07-02 14:01:06 - INFO - Set parameter LogToConsole to value 1
2026-07-02 14:01:06 - INFO - Gurobi Optimizer version 13.0.1 build v13.0.1rc0 (linux64 - "Ubuntu 20.04.6 LTS")
2026-07-02 14:01:06 - INFO - 
2026-07-02 14:01:06 - INFO - CPU model: AMD Ryzen 9 9950X3D 16-Core Processor, instruction set [SSE2|AVX|AVX2|AVX512]
2026-07-02 14:01:06 - INFO - Thread count: 14 physical cores, 28 logical processors, using up to 28 threads
2026-07-02 14:01:06 - INFO - 
2026-07-02 14:01:06 - INFO - Non-default parameters:
2026-07-02 14:01:06 - INFO - TimeLimit  3576
2026-07-02 14:01:06 - INFO - MIPGap  0.8
2026-07-02 14:01:06 - INFO - Heuristics  0.5
2026-07-02 14:01:06 - INFO - MIPFocus  3
2026-07-02 14:01:06 - INFO - 
2026-07-02 14:01:06 - INFO - Optimize a model with 1424 rows, 650 columns and 4886 nonzeros (Min)
2026-07-02 14:01:06 - INFO - Model fingerprint: 0x296e0ab2
2026-07-02 14:01:06 - INFO - Model has 3 linear objective coefficients
2026-07-02 14:01:06 - INFO - Variable types: 253 continuous, 397 integer (397 binary)
2026-07-02 14:01:06 - INFO - Coefficient statistics:
2026-07-02 14:01:06 - INFO -   Matrix range     [3e-01, 5e+02]
2026-07-02 14:01:06 - INFO -   Objective range  [6e-05, 8e-02]
2026-07-02 14:01:06 - INFO -   Bounds range     [9e-01, 2e+07]
2026-07-02 14:01:06 - INFO -   RHS range        [9e-01, 3e+02]
2026-07-02 14:01:06 - INFO - 
2026-07-02 14:01:06 - INFO - Presolved: 1304 rows, 546 columns, 4636 nonzeros
2026-07-02 14:01:06 - INFO - 
2026-07-02 14:01:06 - INFO - Continuing optimization...
2026-07-02 14:01:06 - INFO - 
2026-07-02 14:01:06 - INFO - 
2026-07-02 14:01:06 - INFO - Cutting planes:
2026-07-02 14:01:06 - INFO -   Learned: 33
2026-07-02 14:01:06 - INFO -   Gomory: 136
2026-07-02 14:01:06 - INFO -   Lift-and-project: 108
2026-07-02 14:01:06 - INFO -   Cover: 5
2026-07-02 14:01:06 - INFO -   Implied bound: 5
2026-07-02 14:01:06 - INFO -   MIR: 79
2026-07-02 14:01:06 - INFO -   Mixing: 1
2026-07-02 14:01:06 - INFO -   StrongCG: 2
2026-07-02 14:01:06 - INFO -   Flow cover: 431
2026-07-02 14:01:06 - INFO -   Inf proof: 20
2026-07-02 14:01:06 - INFO -   RLT: 5
2026-07-02 14:01:06 - INFO -   Relax-and-lift: 9
2026-07-02 14:01:06 - INFO -   PSD: 1
2026-07-02 14:01:06 - INFO - 
2026-07-02 14:01:06 - INFO - Explored 40731 nodes (2717257 simplex iterations) in 24.68 seconds (38.81 work units)
2026-07-02 14:01:06 - INFO - Most recent optimization runtime was 0.00 seconds (0.00 work units)
2026-07-02 14:01:06 - INFO - Thread count was 28 (of 28 available processors)
2026-07-02 14:01:06 - INFO - 
2026-07-02 14:01:06 - INFO - Solution count 0
2026-07-02 14:01:06 - INFO - 
2026-07-02 14:01:06 - INFO - Model is infeasible
2026-07-02 14:01:06 - INFO - Best objective -, best bound -, gap -
2026-07-02 14:01:06 - INFO - 
2026-07-02 14:01:06 - INFO - User-callback calls 50, time in user-callback 0.00 sec
2026-07-02 14:01:06 - INFO - 
EMIB returned 0 solution(s) (max 1).
      -     -    0s
     0     0    4.57930    0  166          -    4.57930      -     -    0s
     0     0    4.87924    0  165          -    4.87924      -     -    0s
     0     0    4.87924    0  165          -    4.87924      -     -    0s
     0     0    4.87924    0  165          -    4.87924      -     -    0s
     0     0    5.04586    0  165          -    5.04586      -     -    0s
     0     0    5.04586    0  142          -    5.04586      -     -    0s
     0     2    5.04586    0  141          -    5.04586      -     -    1s
  2341  2017    7.90925   11  205          -    6.28360      -  43.6    5s
  7573  3670    8.51941   32   95          -    7.05029      -  90.2   10s
 17898  5242 infeasible   31               -    7.82605      -  82.1   15s
 31112  4246 infeasible   32               -    9.05869      -  74.8   20s

Cutting planes:
  Learned: 33
  Gomory: 136
  Lift-and-project: 108
  Cover: 5
  Implied bound: 5
  MIR: 79
  Mixing: 1
  StrongCG: 2
  Flow cover: 431
  Inf proof: 20
  RLT: 5
  Relax-and-lift: 9
  PSD: 1

Explored 40731 nodes (2717257 simplex iterations) in 24.66 seconds (38.81 work units)
Thread count was 28 (of 28 available processors)

Solution count 0

Model is infeasible
Best objective -, best bound -, gap -

User-callback calls 91318, time in user-callback 0.12 sec


================================================================================
ILP MODEL ANALYSIS REPORT - Chiplet Placement ILP (After Optimize, Stage=stage1, Gap=0.0)
Generated: 2026-07-02 14:01:06
================================================================================

[MODEL STRUCTURE]
  Constraints (rows):                   1424
  Variables (columns):                   650
  Non-zero elements:                    4886
  Objective coefficients:                  3

[VARIABLE TYPES]
  Continuous:                            253
  Integer:                                 0
  Binary:                                397

[CONSTRAINT TYPES]
  <= constraints:                              764
  == constraints:                              199
  >= constraints:                              461

[COEFFICIENT STATISTICS]
  Matrix range:              [2.93e-01, 5.12e+02]
  Objective range:           [5.61e-05, 8.40e-02]
  Bounds range:              [-3.06e+02, 2.01e+07]

[SOLVE STATISTICS]
  Status:                    Infeasible
  Best bound:                            inf
  MIP gap:                              inf%
  Solve time (s):                      24.67
  Solutions found:                         0
  Nodes explored:                    40731.0
  Simplex iterations:              2717257.0

[MEMORY USAGE]
  Initial memory:                     94.56 MB
  Peak memory:                       456.49 MB
  Final memory:                      410.98 MB
  Peak increase:                     361.93 MB
  Final increase:                    316.42 MB
  Gurobi memory:                      37.08 MB
  Gurobi peak memory:                316.67 MB

================================================================================
[EMIB] No feasible solution: stage=stage1, MIPGap=0.0, status=3, time=24.67s, SolCount=0
[EMIB] Phase 1 no feasible solution, switching to phase 2 MIPGap=0.3.
Set parameter TimeLimit to value 300
Set parameter MIPGap to value 0.3
Set parameter MIPFocus to value 3
Set parameter Heuristics to value 0.5
Set parameter LogToConsole to value 1
[EMIB] Solve stage: stage2, MIPGap=0.3, TimeLimit=300s
Gurobi Optimizer version 13.0.1 build v13.0.1rc0 (linux64 - "Ubuntu 20.04.6 LTS")

CPU model: AMD Ryzen 9 9950X3D 16-Core Processor, instruction set [SSE2|AVX|AVX2|AVX512]
Thread count: 14 physical cores, 28 logical processors, using up to 28 threads

Non-default parameters:
TimeLimit  300
MIPGap  0.3
Heuristics  0.5
MIPFocus  3

Optimize a model with 1424 rows, 650 columns and 4886 nonzeros (Min)
Model fingerprint: 0x296e0ab2
Model has 3 linear objective coefficients
Variable types: 253 continuous, 397 integer (397 binary)
Coefficient statistics:
  Matrix range     [3e-01, 5e+02]
  Objective range  [6e-05, 8e-02]
  Bounds range     [9e-01, 2e+07]
  RHS range        [9e-01, 3e+02]

Presolved: 1304 rows, 546 columns, 4636 nonzeros

Continuing optimization...


Cutting planes:
  Learned: 33
  Gomory: 136
  Lift-and-project: 108
  Cover: 5
  Implied bound: 5
  MIR: 79
  Mixing: 1
  StrongCG: 2
  Flow cover: 431
  Inf proof: 20
  RLT: 5
  Relax-and-lift: 9
  PSD: 1

Explored 40731 nodes (2717257 simplex iterations) in 24.68 seconds (38.81 work units)
Most recent optimization runtime was 0.01 seconds (0.00 work units)
Thread count was 28 (of 28 available processors)

Solution count 0

Model is infeasible
Best objective -, best bound -, gap -

User-callback calls 51, time in user-callback 0.00 sec


================================================================================
ILP MODEL ANALYSIS REPORT - Chiplet Placement ILP (After Optimize, Stage=stage2, Gap=0.3)
Generated: 2026-07-02 14:01:06
================================================================================

[MODEL STRUCTURE]
  Constraints (rows):                   1424
  Variables (columns):                   650
  Non-zero elements:                    4886
  Objective coefficients:                  3

[VARIABLE TYPES]
  Continuous:                            253
  Integer:                                 0
  Binary:                                397

[CONSTRAINT TYPES]
  <= constraints:                              764
  == constraints:                              199
  >= constraints:                              461

[COEFFICIENT STATISTICS]
  Matrix range:              [2.93e-01, 5.12e+02]
  Objective range:           [5.61e-05, 8.40e-02]
  Bounds range:              [-3.06e+02, 2.01e+07]

[SOLVE STATISTICS]
  Status:                    Infeasible
  Best bound:                            inf
  MIP gap:                              inf%
  Solve time (s):                       0.01
  Solutions found:                         0
  Nodes explored:                    40731.0
  Simplex iterations:              2717257.0

[MEMORY USAGE]
  Initial memory:                    410.98 MB
  Peak memory:                       410.98 MB
  Final memory:                      377.78 MB
  Peak increase:                       0.00 MB
  Final increase:                    -33.20 MB
  Gurobi memory:                      10.76 MB
  Gurobi peak memory:                316.67 MB

================================================================================
[EMIB] No feasible solution: stage=stage2, MIPGap=0.3, status=3, time=0.01s, SolCount=0
[EMIB] Phase 2 no feasible solution, switching to phase 3 MIPGap=0.8.
Set parameter TimeLimit to value 3576
Set parameter MIPGap to value 0.8
Set parameter MIPFocus to value 3
Set parameter Heuristics to value 0.5
Set parameter LogToConsole to value 1
[EMIB] Solve stage: stage3, MIPGap=0.8, TimeLimit=3576s
Gurobi Optimizer version 13.0.1 build v13.0.1rc0 (linux64 - "Ubuntu 20.04.6 LTS")

CPU model: AMD Ryzen 9 9950X3D 16-Core Processor, instruction set [SSE2|AVX|AVX2|AVX512]
Thread count: 14 physical cores, 28 logical processors, using up to 28 threads

Non-default parameters:
TimeLimit  3576
MIPGap  0.8
Heuristics  0.5
MIPFocus  3

Optimize a model with 1424 rows, 650 columns and 4886 nonzeros (Min)
Model fingerprint: 0x296e0ab2
Model has 3 linear objective coefficients
Variable types: 253 continuous, 397 integer (397 binary)
Coefficient statistics:
  Matrix range     [3e-01, 5e+02]
  Objective range  [6e-05, 8e-02]
  Bounds range     [9e-01, 2e+07]
  RHS range        [9e-01, 3e+02]

Presolved: 1304 rows, 546 columns, 4636 nonzeros

Continuing optimization...


Cutting planes:
  Learned: 33
  Gomory: 136
  Lift-and-project: 108
  Cover: 5
  Implied bound: 5
  MIR: 79
  Mixing: 1
  StrongCG: 2
  Flow cover: 431
  Inf proof: 20
  RLT: 5
  Relax-and-lift: 9
  PSD: 1

Explored 40731 nodes (2717257 simplex iterations) in 24.68 seconds (38.81 work units)
Most recent optimization runtime was 0.00 seconds (0.00 work units)
Thread count was 28 (of 28 available processors)

Solution count 0

Model is infeasible
Best objective -, best bound -, gap -

User-callback calls 50, time in user-callback 0.00 sec


================================================================================
ILP MODEL ANALYSIS REPORT - Chiplet Placement ILP (After Optimize, Stage=stage3, Gap=0.8)
Generated: 2026-07-02 14:01:06
================================================================================

[MODEL STRUCTURE]
  Constraints (rows):                   1424
  Variables (columns):                   650
  Non-zero elements:                    4886
  Objective coefficients:                  3

[VARIABLE TYPES]
  Continuous:                            253
  Integer:                                 0
  Binary:                                397

[CONSTRAINT TYPES]
  <= constraints:                              764
  == constraints:                              199
  >= constraints:                              461

[COEFFICIENT STATISTICS]
  Matrix range:              [2.93e-01, 5.12e+02]
  Objective range:           [5.61e-05, 8.40e-02]
  Bounds range:              [-3.06e+02, 2.01e+07]

[SOLVE STATISTICS]
  Status:                    Infeasible
  Best bound:                            inf
  MIP gap:                              inf%
  Solve time (s):                       0.00
  Solutions found:                         0
  Nodes explored:                    40731.0
  Simplex iterations:              2717257.0

[MEMORY USAGE]
  Initial memory:                    377.78 MB
  Peak memory:                       377.78 MB
  Final memory:                      377.78 MB
  Peak increase:                       0.00 MB
  Final increase:                      0.00 MB
  Gurobi memory:                      10.76 MB
  Gurobi peak memory:                316.67 MB

================================================================================
[EMIB] No feasible solution: stage=stage3, MIPGap=0.8, status=3, time=0.00s, SolCount=0
[EMIB] Search failed, no feasible solution
  ✓ EMIB: 0 solution(s)
